c User generated cnf file
p cnf 13 58
-5 8 1 0 
5 3 -10 0 
5 7 -10 0 
4 -8 11 0 
-11 8 6 0 
13 -11 11 0 
13 3 -1 0 
13 -11 12 0 
6 5 -4 0 
2 -4 12 0 
7 -5 6 0 
12 11 -11 0 
2 1 -4 0 
2 4 -12 0 
-12 7 3 0 
-12 3 10 0 
8 -13 4 0 
-11 10 7 0 
-12 10 4 0 
9 1 -1 0 
-11 5 7 0 
11 10 -6 0 
2 13 -10 0 
-13 10 12 0 
9 5 -5 0 
1 -10 6 0 
7 -6 3 0 
13 -1 6 0 
13 6 -11 0 
-3 11 3 0 
13 12 -11 0 
8 -4 5 0 
-12 9 7 0 
-12 10 3 0 
-4 2 8 0 
-3 13 3 0 
10 -8 12 0 
5 -5 4 0 
1 -11 3 0 
1 6 -6 0 
-12 7 13 0 
-4 2 11 0 
10 -13 6 0 
-11 5 1 0 
-9 3 9 0 
3 11 -8 0 
12 11 -4 0 
7 5 -5 0 
-11 11 5 0 
11 -11 1 0 
5 -5 7 0 
1 -9 9 0 
5 2 -10 0 
-11 9 13 0 
-9 10 2 0 
-6 12 10 0 
12 6 -12 0 
-9 2 5 0 
